NAME          
ROWS
 N  OBJ
 L  c1
 L  c2
 L  c3
COLUMNS
    MARKER    'MARKER'                 'INTORG'
    x[1]      c1        911
    x[1]      c2        183
    x[1]      c3        994
    x[1]      OBJ       -444
    x[2]      c1        126
    x[2]      c2        348
    x[2]      c3        932
    x[2]      OBJ       -920
    x[3]      c1        746
    x[3]      c2        587
    x[3]      c3        381
    x[3]      OBJ       -978
    x[4]      c1        275
    x[4]      c2        921
    x[4]      c3        168
    x[4]      OBJ       -156
    x[5]      c1        255
    x[5]      c2        596
    x[5]      c3        442
    x[5]      OBJ       -167
    x[6]      c1        92
    x[6]      c2        424
    x[6]      c3        177
    x[6]      OBJ       -406
    x[7]      c1        733
    x[7]      c2        223
    x[7]      c3        153
    x[7]      OBJ       -591
    x[8]      c1        93
    x[8]      c2        732
    x[8]      c3        700
    x[8]      OBJ       -597
    x[9]      c1        638
    x[9]      c2        244
    x[9]      c3        802
    x[9]      OBJ       -638
    x[10]     c1        671
    x[10]     c2        366
    x[10]     c3        869
    x[10]     OBJ       -198
RHS
    rhs       c1        2270
    rhs       c2        2312
    rhs       c3        2809
RANGES
BOUNDS
 LO bounds    x[1]      0
 PL bounds    x[1]
 LO bounds    x[2]      0
 PL bounds    x[2]
 LO bounds    x[3]      0
 PL bounds    x[3]
 LO bounds    x[4]      0
 PL bounds    x[4]
 LO bounds    x[5]      0
 PL bounds    x[5]
 LO bounds    x[6]      0
 PL bounds    x[6]
 LO bounds    x[7]      0
 PL bounds    x[7]
 LO bounds    x[8]      0
 PL bounds    x[8]
 LO bounds    x[9]      0
 PL bounds    x[9]
 LO bounds    x[10]     0
 PL bounds    x[10]
ENDATA
